8077
7, 2, 30, 23, 31, 18, 22, 1, 32, 49, 34, 46, 25, 12, 51, 11, 52, 14, 13, 27, 28, 26, 47, 29, 20, 50, 16, 44, 35, 36, 39, 40, 37, 38, 48, 24, 5, 15, 6, 4, 43, 33, 10, 9, 8, 41, 19, 45, 3, 17, 21, 42
